<number of tasks>
21

<cycle time>
35

<task times>
1 4
2 3
3 9
4 5
5 9
6 4
7 8
8 7
9 5
10 1
11 3
12 1
13 5
14 3
15 5
16 3
17 13
18 5
19 2
20 3
21 7

<precedence relations>
1,2
1,3
2,21
3,4
4,5
4,21
5,6
5,7
6,8
7,8
7,14
8,9
9,10
9,11
9,12
9,13
10,15
11,15
12,15
13,17
13,18
14,19
15,16
15,18
16,17
17,20
18,19

<setup times forward>
2,10:1
2,11:1
2,15:1
2,16:1
2,17:1
2,18:1
2,19:1
2,20:1
9,10:1
9,11:1
10,2:1
10,12:1
10,13:1
10,14:1
10,21:1
11,2:1
11,12:1
11,13:1
11,14:1
11,21:1
12,10:1
12,11:1
12,15:1
13,10:1
13,11:1
13,15:1
13,16:1
13,17:1
13,18:1
14,10:1
14,11:1
14,15:1
14,16:1
14,17:1
14,18:1
14,19:1
14,20:1
15,2:1
15,13:1
15,14:1
15,21:1
16,2:1
16,13:1
16,14:1
16,21:1
17,2:1
17,14:1
17,21:1
18,2:1
18,14:1
18,21:1
19,2:1
19,21:1
20,2:1
20,14:1
20,21:1
21,10:1
21,11:1
21,15:1
21,16:1
21,17:1
21,18:1
21,19:1
21,20:1

<setup times backward>
2,10:1
2,11:1
2,15:1
2,16:1
2,17:1
2,18:1
2,19:1
2,20:1
12,10:1
12,11:1
13,10:1
13,11:1
13,15:1
13,16:1
14,10:1
14,11:1
14,15:1
14,16:1
14,17:1
14,18:1
14,20:1
21,10:1
21,11:1
21,15:1
21,16:1
21,17:1
21,18:1
21,19:1
21,20:1

<end>

<optimal SALBP-1 value>
3


<rand seed>
467321153

